
Gurobi 9.5.0 (win64) logging started Mon Jul  4 12:17:26 2022

Set parameter LogFile to value "../results/logs/log_web-Google_4_250_2022_07_04_11_15.log"
Gurobi Optimizer version 9.5.0 build v9.5.0rc5 (win64)
Thread count: 6 physical cores, 12 logical processors, using up to 12 threads
Optimize a model with 139778 rows, 1751426 columns and 1326618 nonzeros
Model fingerprint: 0x92dc8960
Coefficient statistics:
  Matrix range     [1e+00, 4e+00]
  Objective range  [1e+00, 1e+00]
  Bounds range     [1e+00, 1e+00]
  RHS range        [1e+00, 3e+02]

Concurrent LP optimizer: primal simplex, dual simplex, and barrier
Showing barrier log only...

Presolve removed 16569 rows and 1622370 columns
Presolve time: 2.45s
Presolved: 123209 rows, 129056 columns, 494012 nonzeros

Ordering time: 0.04s

Barrier statistics:
 AA' NZ     : 3.693e+05
 Factor NZ  : 6.744e+05 (roughly 70 MB of memory)
 Factor Ops : 8.277e+06 (less than 1 second per iteration)
 Threads    : 4

                  Objective                Residual
Iter       Primal          Dual         Primal    Dual     Compl     Time
   0   4.58803493e+06  1.66000810e+06  4.17e+05 3.87e+01  3.41e+03     3s
   1   3.30301792e+06  1.74772269e+06  2.20e+05 1.82e+01  1.79e+03     3s
   2   1.69167821e+06  1.80847518e+06  7.60e+04 1.71e-13  6.59e+02     4s
   3   5.47272018e+05  1.66005975e+06  2.72e+03 1.42e-13  2.80e+01     4s
   4   5.14027594e+05  1.04570093e+06  6.46e+02 1.56e-13  7.14e+00     4s
   5   5.05979208e+05  7.36198566e+05  1.64e+02 1.67e-13  1.99e+00     4s
   6   5.04052373e+05  5.81767090e+05  4.74e+01 1.49e-13  5.68e-01     4s
   7   5.04230874e+05  5.34075167e+05  1.58e+01 1.49e-13  1.96e-01     4s
   8   5.05829167e+05  5.18064320e+05  4.06e+00 8.24e-14  6.72e-02     4s
   9   5.06620690e+05  5.13731510e+05  1.61e+00 7.19e-14  3.52e-02     4s
  10   5.07044609e+05  5.12027768e+05  7.85e-01 5.52e-14  2.34e-02     4s
  11   5.07152060e+05  5.11234915e+05  6.52e-01 6.35e-14  1.90e-02     4s
  12   5.07285500e+05  5.10841029e+05  5.05e-01 8.27e-14  1.64e-02     4s
  13   5.07409713e+05  5.09702841e+05  3.99e-01 6.14e-14  1.07e-02     4s
  14   5.07506373e+05  5.09349169e+05  3.27e-01 6.25e-14  8.56e-03     4s
  15   5.07644765e+05  5.09022618e+05  2.34e-01 6.55e-14  6.35e-03     4s
  16   5.07757757e+05  5.08941382e+05  1.80e-01 5.68e-14  5.42e-03     4s
  17   5.07837782e+05  5.08849224e+05  1.42e-01 5.47e-14  4.60e-03     4s
  18   5.07868364e+05  5.08690142e+05  1.27e-01 6.14e-14  3.75e-03     4s
  19   5.07901713e+05  5.08609463e+05  1.13e-01 6.92e-14  3.23e-03     5s
  20   5.07956916e+05  5.08525096e+05  8.90e-02 6.67e-14  2.59e-03     5s
  21   5.08014932e+05  5.08411633e+05  6.68e-02 4.67e-14  1.81e-03     5s
  22   5.08053410e+05  5.08356736e+05  5.30e-02 4.88e-14  1.39e-03     5s
  23   5.08063430e+05  5.08343745e+05  4.96e-02 3.42e-14  1.28e-03     5s
  24   5.08093212e+05  5.08312555e+05  3.96e-02 2.58e-14  1.00e-03     5s
  25   5.08104424e+05  5.08294152e+05  3.60e-02 2.38e-14  8.69e-04     5s
  26   5.08132553e+05  5.08279306e+05  2.71e-02 2.07e-14  6.71e-04     5s
  27   5.08173996e+05  5.08272287e+05  1.47e-02 1.83e-14  4.45e-04     5s
  28   5.08206351e+05  5.08230361e+05  4.76e-03 6.10e-14  1.10e-04     5s
  29   5.08219953e+05  5.08225717e+05  1.04e-03 4.78e-14  2.63e-05     5s
  30   5.08224471e+05  5.08224672e+05  3.54e-05 5.26e-14  9.16e-07     5s
  31   5.08224635e+05  5.08224635e+05  1.20e-09 5.23e-14  7.11e-11     5s
  32   5.08224635e+05  5.08224635e+05  5.97e-13 3.82e-14  1.02e-15     5s

Barrier solved model in 32 iterations and 5.36 seconds (2.17 work units)
Optimal objective 5.08224635e+05

Crossover log...

   19854 DPushes remaining with DInf 0.0000000e+00                 5s
       0 DPushes remaining with DInf 0.0000000e+00                 6s

      59 PPushes remaining with PInf 0.0000000e+00                 6s
       0 PPushes remaining with PInf 0.0000000e+00                 6s

  Push phase complete: Pinf 0.0000000e+00, Dinf 2.6073124e-12      6s

Iteration    Objective       Primal Inf.    Dual Inf.      Time
   12237    5.0822464e+05   0.000000e+00   0.000000e+00      6s

Use crossover to convert LP symmetric solution to basic solution...

Solved with primal simplex
Solved in 42018 iterations and 5.98 seconds (2.38 work units)
Optimal objective  5.082246350e+05
